proyfinal/src/viki/013/experimentInOfficeAgust.take6.output/0cf994ed-76c3-4924-a5f3-37b9d1efecd0.als.out
Reading from standard input... Use '--help' for help.
============================[ Problem Statistics ]=============================
|                                                                             |
|  Number of variables:         87638                                         |
|  Number of clauses:          161767                                         |
|  Parse time:                   0.04 s                                       |
|                                                                             |
============================[ Search Statistics ]==============================
| Conflicts |          ORIGINAL         |          LEARNT          | Progress |
|           |    Vars  Clauses Literals |    Limit  Clauses Lit/Cl |          |
===============================================================================
|       100 |   65228   115523   288107 |    42358      100     45 | 25.571 % |
|       250 |   65174   115523   288107 |    46594      248     39 | 25.633 % |
|       475 |   65174   115299   287595 |    51253      465     37 | 25.633 % |
|       812 |   65174   115299   287595 |    56379      802     39 | 25.633 % |
|      1318 |   65174   115299   287595 |    62016     1308     41 | 25.633 % |
|      2077 |   65174   115299   287595 |    68218     2067     49 | 25.633 % |
|      3216 |   65172   115289   287571 |    75040     3204     54 | 25.635 % |
|      4924 |   58693    95060   237516 |    82544     4892     63 | 33.028 % |
|      7486 |   55871    85592   214000 |    90799     6016     68 | 36.248 % |
|     11330 |   55768    84766   212016 |    99878     9840     63 | 36.366 % |
|     17096 |   55498    83472   208945 |   109866    14009     64 | 36.674 % |
===============================================================================
restarts              : 72
conflicts             : 20612          (9235 /sec)
decisions             : 75110          (0.00 % random) (33652 /sec)
propagations          : 24974141       (11189367 /sec)
conflict literals     : 1238855        (43.99 % deleted)
Memory used           : 43.18 MB
CPU time              : 2.23195 s

UNSATISFIABLE
